fitter/benchmarks_thesis/emm_named/MPEG-4/t_mesh/testmeshv1.sol
# Solution for model meshILPv1
# Objective value = 3569
x_[sdram] 1
x_[adsp] 1
x_[idct] 2
x_[upsamp] 2
x_[medcpu] 0
x_[risc] 3
x_[sram2] 2
x_[rast] 1
x_[sram1] 2
x_[au] 3
x_[vu] 0
x_[bab] 1
y_[sdram] 2
y_[adsp] 0
y_[idct] 0
y_[upsamp] 2
y_[medcpu] 3
y_[risc] 1
y_[sram2] 1
y_[rast] 3
y_[sram1] 3
y_[au] 2
y_[vu] 2
y_[bab] 1
C24 0
C25 0
C26 0
C27 0
C28 0
C29 0
C30 1
C31 0
C32 0
C33 0
C34 0
C35 0
C36 0
C37 0
C38 0
C39 0
C40 0
C41 0
C42 0
C43 0
C44 1
C45 0
C46 0
C47 0
C48 0
C49 0
C50 0
C51 0
C52 0
C53 0
C54 0
C55 0
C56 0
C57 0
C58 0
C59 0
C60 0
C61 0
C62 0
C63 0
C64 1
C65 0
C66 0
C67 0
C68 0
C69 0
C70 0
C71 0
C72 0
C73 0
C74 0
C75 0
C76 0
C77 0
C78 0
C79 0
C80 0
C81 0
C82 1
C83 0
C84 0
C85 0
C86 0
C87 0
C88 0
C89 0
C90 0
C91 1
C92 0
C93 0
C94 0
C95 0
C96 0
C97 0
C98 0
C99 0
C100 0
C101 0
C102 0
C103 0
C104 0
C105 0
C106 0
C107 0
C108 0
C109 0
C110 0
C111 0
C112 0
C113 0
C114 0
C115 0
C116 0
C117 1
C118 0
C119 0
C120 0
C121 0
C122 0
C123 0
C124 0
C125 0
C126 0
C127 0
C128 0
C129 1
C130 0
C131 0
C132 0
C133 0
C134 0
C135 0
C136 0
C137 0
C138 0
C139 0
C140 0
C141 0
C142 0
C143 1
C144 0
C145 0
C146 0
C147 0
C148 0
C149 0
C150 0
C151 0
C152 0
C153 0
C154 0
C155 0
C156 0
C157 0
C158 0
C159 0
C160 0
C161 0
C162 0
C163 1
C164 0
C165 0
C166 0
C167 0
C168 0
C169 0
C170 0
C171 0
C172 0
C173 0
C174 0
C175 0
C176 0
C177 0
C178 0
C179 0
C180 0
C181 0
C182 1
C183 0
C184 0
C185 0
C186 1
C187 0
C188 0
C189 0
C190 0
C191 0
C192 0
C193 0
C194 0
C195 0
C196 0
C197 0
C198 0
C199 0
C200 0
C201 0
C202 0
C203 0
C204 0
C205 1
C206 0
C207 0
C208 0
C209 0
C210 0
C211 0
C212 0
C213 0
C214 0
C215 0
xi_equals_p[sdram,0] 0
xi_equals_p[sdram,1] 1
xi_equals_p[sdram,2] 0
xi_equals_p[sdram,3] 0
xi_equals_p[adsp,0] 0
xi_equals_p[adsp,1] 1
xi_equals_p[adsp,2] 0
xi_equals_p[adsp,3] 0
xi_equals_p[idct,0] 0
xi_equals_p[idct,1] 0
xi_equals_p[idct,2] 1
xi_equals_p[idct,3] 0
xi_equals_p[upsamp,0] 0
xi_equals_p[upsamp,1] 0
xi_equals_p[upsamp,2] 1
xi_equals_p[upsamp,3] 0
xi_equals_p[medcpu,0] 1
xi_equals_p[medcpu,1] 0
xi_equals_p[medcpu,2] 0
xi_equals_p[medcpu,3] 0
xi_equals_p[risc,0] 0
xi_equals_p[risc,1] 0
xi_equals_p[risc,2] 0
xi_equals_p[risc,3] 1
xi_equals_p[sram2,0] 0
xi_equals_p[sram2,1] 0
xi_equals_p[sram2,2] 1
xi_equals_p[sram2,3] 0
xi_equals_p[rast,0] 0
xi_equals_p[rast,1] 1
xi_equals_p[rast,2] 0
xi_equals_p[rast,3] 0
xi_equals_p[sram1,0] 0
xi_equals_p[sram1,1] 0
xi_equals_p[sram1,2] 1
xi_equals_p[sram1,3] 0
xi_equals_p[au,0] 0
xi_equals_p[au,1] 0
xi_equals_p[au,2] 0
xi_equals_p[au,3] 1
xi_equals_p[vu,0] 1
xi_equals_p[vu,1] 0
xi_equals_p[vu,2] 0
xi_equals_p[vu,3] 0
xi_equals_p[bab,0] 0
xi_equals_p[bab,1] 1
xi_equals_p[bab,2] 0
xi_equals_p[bab,3] 0
yi_equals_q[sdram,0] 0
yi_equals_q[sdram,1] 0
yi_equals_q[sdram,2] 1
yi_equals_q[sdram,3] 0
yi_equals_q[adsp,0] 1
yi_equals_q[adsp,1] 0
yi_equals_q[adsp,2] 0
yi_equals_q[adsp,3] 0
yi_equals_q[idct,0] 1
yi_equals_q[idct,1] 0
yi_equals_q[idct,2] 0
yi_equals_q[idct,3] 0
yi_equals_q[upsamp,0] 0
yi_equals_q[upsamp,1] 0
yi_equals_q[upsamp,2] 1
yi_equals_q[upsamp,3] 0
yi_equals_q[medcpu,0] 0
yi_equals_q[medcpu,1] 0
yi_equals_q[medcpu,2] 0
yi_equals_q[medcpu,3] 1
yi_equals_q[risc,0] 0
yi_equals_q[risc,1] 1
yi_equals_q[risc,2] 0
yi_equals_q[risc,3] 0
yi_equals_q[sram2,0] 0
yi_equals_q[sram2,1] 1
yi_equals_q[sram2,2] 0
yi_equals_q[sram2,3] 0
yi_equals_q[rast,0] 0
yi_equals_q[rast,1] 0
yi_equals_q[rast,2] 0
yi_equals_q[rast,3] 1
yi_equals_q[sram1,0] 0
yi_equals_q[sram1,1] 0
yi_equals_q[sram1,2] 0
yi_equals_q[sram1,3] 1
yi_equals_q[au,0] 0
yi_equals_q[au,1] 0
yi_equals_q[au,2] 1
yi_equals_q[au,3] 0
yi_equals_q[vu,0] 0
yi_equals_q[vu,1] 0
yi_equals_q[vu,2] 1
yi_equals_q[vu,3] 0
yi_equals_q[bab,0] 0
yi_equals_q[bab,1] 1
yi_equals_q[bab,2] 0
yi_equals_q[bab,3] 0
dx_[sdram,upsamp] 1
dx_[sdram,bab] 0
dx_[sdram,adsp] 0
dx_[medcpu,sdram] 1
dx_[medcpu,sram1] 2
dx_[sram2,upsamp] 0
dx_[sram2,idct] 0
dx_[sram2,bab] 1
dx_[sram2,risc] 1
dx_[rast,sdram] 0
dx_[rast,sram1] 1
dx_[au,sdram] 2
dx_[vu,sdram] 1
dy_[sdram,upsamp] 0
dy_[sdram,bab] 1
dy_[sdram,adsp] 2
dy_[medcpu,sdram] 1
dy_[medcpu,sram1] 0
dy_[sram2,upsamp] 1
dy_[sram2,idct] 1
dy_[sram2,bab] 0
dy_[sram2,risc] 0
dy_[rast,sdram] 1
dy_[rast,sram1] 0
dy_[au,sdram] 0
dy_[vu,sdram] 0
